set VV := 0 1 2 3 4 5 6 7 8 9 10 11 12 13 14 15 16 17 18 19 20 21 22 23 24 25 26 27 28 29 30 31 32 33 34 35 36 37 38 39 40 41 42 43 44 ;
set VS := 0 1 2 3 4 5 6 7 8 9 10 11 12 13 14 15 16 17 18 19 20 21 22 23 24 25 26 27 28 29 30 31 32 33 34 35 36 37 38 39 40 41 42 43 44 45 46 47 48 49 50 51 52 53 54 55 56 57 58 59 60 61 62 63 64 65 66 67 68 69 70 71 72 73 74 75 76 77 78 79 80 81 82 83 84 85 86 87 88 89 90 91 92 93 ;
param cv := 
0 23
1 13
2 15
3 16
4 13
5 15
6 21
7 23
8 24
9 17
10 13
11 10
12 23
13 11
14 21
15 10
16 12
17 11
18 10
19 15
20 15
21 17
22 17
23 22
24 18
25 19
26 13
27 24
28 20
29 18
30 25
31 17
32 13
33 14
34 25
35 13
36 15
37 13
38 25
39 21
40 20
41 11
42 23
43 19
44 10
;
param cs := 
0 32
1 21
2 32
3 34
4 26
5 35
6 29
7 40
8 29
9 23
10 38
11 21
12 22
13 28
14 30
15 38
16 29
17 35
18 30
19 36
20 35
21 20
22 33
23 27
24 32
25 36
26 21
27 22
28 30
29 23
30 29
31 35
32 39
33 38
34 24
35 27
36 38
37 40
38 26
39 30
40 20
41 25
42 28
43 25
44 32
45 26
46 36
47 40
48 35
49 30
50 23
51 28
52 23
53 27
54 29
55 20
56 20
57 21
58 34
59 26
60 20
61 28
62 30
63 22
64 23
65 36
66 29
67 36
68 30
69 40
70 39
71 28
72 31
73 29
74 31
75 33
76 20
77 31
78 29
79 38
80 33
81 22
82 39
83 34
84 34
85 26
86 34
87 25
88 20
89 22
90 24
91 35
92 38
93 26
;
param bv:	 0 1 2 3 4 5 6 7 8 9 10 11 12 13 14 15 16 17 18 19 20 21 22 23 24 25 26 27 28 29 30 31 32 33 34 35 36 37 38 39 40 41 42 43 44 := 
		0 0 0 0 0 0 0 0 0 0 0 0 0 0 0 0 11 0 0 0 0 0 0 0 0 0 0 0 0 0 0 0 0 0 0 0 0 0 0 0 0 0 19 0 0 0 
		1 0 0 0 0 0 0 0 0 0 0 18 17 0 0 0 0 0 19 0 0 0 0 12 0 18 0 0 0 0 0 0 0 0 0 0 0 0 0 0 0 0 0 0 22 0 
		2 0 0 0 0 0 0 0 0 0 0 0 0 0 24 0 0 0 0 0 0 0 0 0 0 0 20 0 0 0 0 0 0 0 0 0 0 0 0 0 0 17 0 0 0 0 
		3 0 0 0 0 0 0 0 0 0 0 0 0 0 0 0 0 0 0 0 0 0 0 0 0 0 0 0 0 0 14 0 0 0 0 0 0 0 0 0 0 0 0 0 0 0 
		4 0 0 0 0 0 0 0 0 0 0 0 0 0 0 0 0 0 0 0 0 0 0 0 0 0 0 25 0 0 0 0 0 0 0 0 0 0 0 0 0 0 0 0 0 0 
		5 0 0 0 0 0 0 0 16 0 13 0 16 0 0 0 0 23 16 0 0 0 0 18 0 13 0 0 0 0 0 0 0 0 0 0 0 0 0 0 0 0 0 0 0 0 
		6 0 0 0 0 0 0 0 0 0 16 0 0 0 0 0 0 0 0 0 0 0 13 0 0 0 0 0 0 0 22 0 0 0 0 0 0 0 0 0 0 0 0 0 0 0 
		7 0 0 0 0 0 0 0 0 0 0 0 0 0 0 0 0 0 0 18 0 0 0 0 0 0 0 0 0 0 0 0 0 0 0 0 22 0 0 0 0 0 0 0 0 0 
		8 0 0 0 0 0 0 0 0 0 0 0 0 0 0 25 0 0 0 0 0 0 0 0 0 21 0 0 0 13 15 0 0 0 0 0 0 0 0 0 0 0 0 0 0 0 
		9 0 0 0 0 0 0 0 0 0 0 0 0 0 0 0 0 23 20 0 0 0 0 0 0 0 19 0 0 0 0 0 0 24 23 0 0 0 0 0 0 0 0 0 0 10 
		10 0 0 0 0 0 0 0 0 0 0 0 0 0 0 0 0 0 0 0 0 0 0 0 0 0 0 0 19 0 0 0 0 14 0 0 0 24 0 0 0 0 0 0 0 24 
		11 0 0 0 0 0 0 0 0 0 0 0 0 0 0 0 24 0 0 0 0 0 16 0 0 0 0 0 0 0 0 0 0 0 0 0 0 0 0 19 0 0 0 11 0 0 
		12 0 0 0 0 0 0 0 0 0 0 0 0 0 0 0 0 0 0 0 0 0 13 0 0 0 0 0 0 0 19 0 0 0 0 0 0 0 21 0 0 0 17 0 0 0 
		13 0 0 0 0 0 0 0 0 0 0 0 0 0 0 0 16 0 0 0 0 0 0 0 13 0 0 0 0 0 0 0 21 0 0 22 0 0 0 0 0 0 0 0 0 0 
		14 0 0 0 0 0 0 0 0 0 0 0 0 0 0 0 0 0 0 0 0 0 0 0 0 0 0 0 0 0 0 0 0 0 0 0 0 21 0 0 0 0 0 0 0 0 
		15 0 0 0 0 0 0 0 0 0 0 0 0 0 0 0 0 0 0 0 16 0 0 0 0 0 13 0 0 0 0 0 0 0 0 0 0 0 24 0 0 0 20 0 0 0 
		16 0 0 0 0 0 0 0 0 0 0 0 0 0 0 0 0 0 13 0 20 0 0 0 0 0 23 0 0 21 0 0 0 0 0 0 0 0 0 0 0 0 11 0 0 16 
		17 0 0 0 0 0 0 0 0 0 0 0 0 0 0 0 0 0 0 0 0 0 0 0 0 0 0 21 0 0 0 25 0 0 0 0 0 0 0 0 0 0 0 24 14 0 
		18 0 0 0 0 0 0 0 0 0 0 0 0 0 0 0 0 0 0 0 0 0 0 0 0 0 0 0 0 0 0 0 0 0 0 0 0 0 0 0 0 0 0 0 0 0 
		19 0 0 0 0 0 0 0 0 0 0 0 0 0 0 0 0 0 0 0 0 17 0 10 0 0 0 0 0 0 0 0 0 0 0 0 0 0 0 0 16 0 0 14 0 0 
		20 0 0 0 0 0 0 0 0 0 0 0 0 0 0 0 0 0 0 0 0 0 0 0 0 0 0 0 0 0 25 0 0 0 11 0 0 0 17 0 0 10 0 0 0 0 
		21 0 0 0 0 0 0 0 0 0 0 0 0 0 0 0 0 0 0 0 0 0 0 0 0 0 0 0 0 0 0 24 16 0 0 0 0 0 0 0 0 0 0 13 14 0 
		22 0 0 0 0 0 0 0 0 0 0 0 0 0 0 0 0 0 0 0 0 0 0 0 0 0 0 18 0 0 0 0 0 0 0 0 0 12 0 0 0 0 0 0 15 0 
		23 0 0 0 0 0 0 0 0 0 0 0 0 0 0 0 0 0 0 0 0 0 0 0 0 0 13 0 10 0 0 0 13 0 0 0 0 0 22 0 0 0 0 0 0 0 
		24 0 0 0 0 0 0 0 0 0 0 0 0 0 0 0 0 0 0 0 0 0 0 0 0 0 0 0 0 0 0 0 16 19 0 0 0 0 0 0 0 0 0 0 0 0 
		25 0 0 0 0 0 0 0 0 0 0 0 0 0 0 0 0 0 0 0 0 0 0 0 0 0 0 0 0 0 0 0 0 0 0 0 0 0 24 0 0 0 0 0 0 0 
		26 0 0 0 0 0 0 0 0 0 0 0 0 0 0 0 0 0 0 0 0 0 0 0 0 0 0 0 0 0 0 0 0 0 0 0 0 18 14 0 0 0 0 0 0 0 
		27 0 0 0 0 0 0 0 0 0 0 0 0 0 0 0 0 0 0 0 0 0 0 0 0 0 0 0 0 0 0 0 0 0 0 0 0 0 0 14 0 0 0 14 0 0 
		28 0 0 0 0 0 0 0 0 0 0 0 0 0 0 0 0 0 0 0 0 0 0 0 0 0 0 0 0 0 0 0 0 0 0 0 0 0 0 12 0 0 0 14 0 0 
		29 0 0 0 0 0 0 0 0 0 0 0 0 0 0 0 0 0 0 0 0 0 0 0 0 0 0 0 0 0 0 0 0 0 13 0 0 0 16 0 0 21 11 0 0 0 
		30 0 0 0 0 0 0 0 0 0 0 0 0 0 0 0 0 0 0 0 0 0 0 0 0 0 0 0 0 0 0 0 0 0 0 0 0 0 0 0 0 0 0 12 0 0 
		31 0 0 0 0 0 0 0 0 0 0 0 0 0 0 0 0 0 0 0 0 0 0 0 0 0 0 0 0 0 0 0 0 0 0 0 0 0 10 0 0 0 0 0 0 0 
		32 0 0 0 0 0 0 0 0 0 0 0 0 0 0 0 0 0 0 0 0 0 0 0 0 0 0 0 0 0 0 0 0 0 0 0 0 0 0 0 0 0 0 0 0 0 
		33 0 0 0 0 0 0 0 0 0 0 0 0 0 0 0 0 0 0 0 0 0 0 0 0 0 0 0 0 0 0 0 0 0 0 0 0 0 0 0 25 15 0 0 0 0 
		34 0 0 0 0 0 0 0 0 0 0 0 0 0 0 0 0 0 0 0 0 0 0 0 0 0 0 0 0 0 0 0 0 0 0 0 0 0 0 0 0 0 0 0 0 10 
		35 0 0 0 0 0 0 0 0 0 0 0 0 0 0 0 0 0 0 0 0 0 0 0 0 0 0 0 0 0 0 0 0 0 0 0 0 0 0 0 0 0 0 0 0 0 
		36 0 0 0 0 0 0 0 0 0 0 0 0 0 0 0 0 0 0 0 0 0 0 0 0 0 0 0 0 0 0 0 0 0 0 0 0 0 0 0 0 0 0 0 0 0 
		37 0 0 0 0 0 0 0 0 0 0 0 0 0 0 0 0 0 0 0 0 0 0 0 0 0 0 0 0 0 0 0 0 0 0 0 0 0 0 0 0 0 0 0 0 0 
		38 0 0 0 0 0 0 0 0 0 0 0 0 0 0 0 0 0 0 0 0 0 0 0 0 0 0 0 0 0 0 0 0 0 0 0 0 0 0 0 0 0 0 0 0 0 
		39 0 0 0 0 0 0 0 0 0 0 0 0 0 0 0 0 0 0 0 0 0 0 0 0 0 0 0 0 0 0 0 0 0 0 0 0 0 0 0 0 0 0 0 0 0 
		40 0 0 0 0 0 0 0 0 0 0 0 0 0 0 0 0 0 0 0 0 0 0 0 0 0 0 0 0 0 0 0 0 0 0 0 0 0 0 0 0 0 0 0 0 0 
		41 0 0 0 0 0 0 0 0 0 0 0 0 0 0 0 0 0 0 0 0 0 0 0 0 0 0 0 0 0 0 0 0 0 0 0 0 0 0 0 0 0 0 0 0 0 
		42 0 0 0 0 0 0 0 0 0 0 0 0 0 0 0 0 0 0 0 0 0 0 0 0 0 0 0 0 0 0 0 0 0 0 0 0 0 0 0 0 0 0 0 0 0 
		43 0 0 0 0 0 0 0 0 0 0 0 0 0 0 0 0 0 0 0 0 0 0 0 0 0 0 0 0 0 0 0 0 0 0 0 0 0 0 0 0 0 0 0 0 0 
		44 0 0 0 0 0 0 0 0 0 0 0 0 0 0 0 0 0 0 0 0 0 0 0 0 0 0 0 0 0 0 0 0 0 0 0 0 0 0 0 0 0 0 0 0 0 
;
param bs:	 0 1 2 3 4 5 6 7 8 9 10 11 12 13 14 15 16 17 18 19 20 21 22 23 24 25 26 27 28 29 30 31 32 33 34 35 36 37 38 39 40 41 42 43 44 45 46 47 48 49 50 51 52 53 54 55 56 57 58 59 60 61 62 63 64 65 66 67 68 69 70 71 72 73 74 75 76 77 78 79 80 81 82 83 84 85 86 87 88 89 90 91 92 93 := 
		0 0 0 0 0 0 0 0 0 0 0 0 0 0 0 0 0 0 0 0 0 0 0 0 0 0 0 0 0 33 0 0 0 0 0 0 0 0 0 0 0 0 0 0 0 0 0 0 0 27 27 0 29 0 0 0 21 0 0 0 0 0 0 0 0 38 0 0 0 0 0 0 0 0 0 0 0 0 0 0 0 0 40 0 0 21 0 0 0 0 0 0 0 0 0 
		1 0 0 0 35 0 0 0 0 0 36 0 0 0 0 0 0 0 0 0 0 40 0 0 0 34 0 0 0 0 0 21 0 0 0 0 0 0 0 0 37 0 0 0 28 0 0 0 0 0 0 0 0 0 0 0 0 0 0 0 0 0 0 0 0 0 0 0 0 0 0 23 0 0 0 0 0 0 0 0 0 0 22 0 0 0 0 0 0 0 0 0 0 0 0 
		2 0 0 0 0 0 0 0 0 0 0 0 0 0 0 31 0 0 0 0 0 0 0 0 0 0 0 0 0 0 0 0 30 0 0 0 0 0 0 29 20 0 0 0 0 0 0 0 34 0 0 0 31 0 0 0 0 0 0 0 0 0 0 0 0 0 0 0 0 0 0 0 0 0 0 22 0 0 40 0 0 0 0 0 0 0 29 0 0 0 0 0 0 0 0 
		3 0 35 0 0 0 34 0 0 0 0 0 0 0 0 0 0 0 24 33 0 0 0 25 0 0 0 0 0 0 0 0 0 26 0 0 0 0 0 0 27 0 37 20 0 31 0 0 0 0 0 36 0 0 0 0 0 0 32 0 0 0 30 0 40 0 0 32 32 0 0 0 0 0 0 0 0 25 0 32 0 0 0 0 0 0 0 0 0 0 0 0 0 0 0 
		4 0 0 0 0 0 30 0 0 0 0 0 0 0 0 0 0 0 0 0 0 0 0 0 0 27 0 0 35 37 0 0 28 0 0 0 0 0 0 0 0 0 0 0 0 0 38 0 0 0 0 0 0 0 37 0 0 0 0 0 0 0 0 0 0 0 0 0 0 0 0 0 0 0 0 0 0 24 0 0 0 0 0 0 0 0 0 0 0 0 0 0 0 0 0 
		5 0 0 0 34 30 0 0 0 0 20 0 0 0 0 0 0 0 0 0 0 0 0 0 22 0 0 28 0 0 0 0 0 0 0 24 0 0 21 0 20 0 0 0 0 0 0 0 0 0 0 0 0 0 0 0 0 0 0 0 0 0 0 0 36 0 0 0 0 0 21 0 0 36 0 0 0 21 0 0 0 0 0 0 0 0 28 0 0 0 0 0 0 0 0 
		6 0 0 0 0 0 0 0 0 0 0 0 0 0 0 0 0 23 0 0 0 0 0 0 0 0 0 0 0 0 0 0 0 0 0 0 37 0 0 0 0 0 0 0 0 0 0 0 0 27 0 0 0 0 0 25 0 0 0 0 0 0 0 0 0 0 0 28 0 0 0 0 0 0 0 0 28 0 0 0 0 0 0 0 0 0 0 0 0 0 0 0 0 27 0 
		7 0 0 0 0 0 0 0 0 0 0 0 0 0 0 0 37 0 0 0 0 0 0 0 0 0 0 0 28 25 0 0 0 0 0 0 0 0 0 0 22 0 0 0 0 0 0 0 0 0 0 0 0 0 0 0 0 0 0 0 0 0 0 0 0 0 0 0 0 0 0 0 0 0 0 0 0 0 0 0 0 0 0 0 0 0 0 0 0 0 0 0 0 30 0 
		8 0 0 0 0 0 0 0 0 0 33 0 0 22 0 0 0 0 34 33 0 0 0 0 0 0 40 0 0 0 0 0 0 0 0 0 0 0 0 0 29 0 0 0 0 0 0 0 0 26 0 0 0 0 27 0 0 0 0 0 0 0 0 0 0 0 0 0 38 0 0 0 0 0 0 0 0 0 22 0 0 0 0 27 0 0 27 0 34 0 0 0 0 0 33 
		9 0 36 0 0 0 20 0 0 33 0 0 0 32 20 0 0 0 0 36 0 0 0 0 0 0 0 0 0 0 0 0 0 0 0 0 0 0 0 0 0 0 0 0 0 0 0 0 0 0 0 0 0 0 0 0 0 0 0 0 0 0 0 0 0 0 0 0 0 0 0 0 0 0 0 0 0 0 0 0 0 0 0 0 0 0 0 0 0 0 0 0 0 0 23 
		10 0 0 0 0 0 0 0 0 0 0 0 0 0 0 0 0 0 0 0 0 0 0 0 0 0 0 0 0 0 0 0 0 0 0 0 0 0 0 0 0 0 0 33 0 0 0 23 0 0 0 0 0 0 0 0 0 0 0 0 0 0 0 0 0 0 0 0 24 0 0 0 0 0 0 0 0 0 0 0 0 0 0 0 0 0 0 0 0 0 0 0 0 0 0 
		11 0 0 0 0 0 0 0 0 0 0 0 0 0 0 0 0 0 35 38 20 0 0 0 0 0 0 0 0 0 37 0 0 0 0 0 23 0 0 0 0 0 0 0 40 0 26 0 0 0 0 0 0 0 0 21 35 0 0 28 0 0 0 0 0 32 0 31 0 0 0 0 0 0 0 0 0 0 20 0 0 0 0 0 0 0 0 25 0 0 0 0 0 0 0 
		12 0 0 0 0 0 0 0 0 22 32 0 0 0 0 0 0 0 0 0 22 0 0 20 0 0 33 0 0 0 0 0 0 0 0 0 0 22 0 0 35 0 0 0 0 0 0 40 0 0 0 0 0 0 0 0 0 0 23 0 0 0 0 0 0 0 0 0 0 0 0 0 0 0 0 0 0 0 0 0 0 0 0 0 0 0 0 0 0 0 0 0 0 0 0 
		13 0 0 0 0 0 0 0 0 0 20 0 0 0 0 0 0 0 0 0 40 0 0 32 0 32 0 0 0 0 0 0 0 0 0 0 0 29 0 0 0 0 0 0 0 0 0 20 37 0 0 0 0 0 0 0 0 0 0 0 0 0 0 0 0 0 0 0 36 0 0 0 0 0 0 0 0 0 0 0 0 0 0 35 0 0 40 0 0 0 0 0 0 0 38 
		14 0 0 31 0 0 0 0 0 0 0 0 0 0 0 0 22 0 0 0 0 30 0 0 0 0 33 0 0 0 0 0 0 0 25 40 0 0 0 0 0 0 0 37 0 0 0 0 0 0 0 0 0 0 0 0 0 0 0 0 0 0 0 27 0 0 0 24 0 0 0 0 27 0 0 0 0 0 0 0 0 0 0 0 0 20 0 0 0 0 35 0 0 0 27 
		15 0 0 0 0 0 0 0 37 0 0 0 0 0 0 22 0 0 20 0 0 0 0 38 24 0 0 0 32 0 0 32 0 23 0 0 0 0 0 0 38 0 0 0 31 0 0 0 0 0 0 0 0 0 0 0 0 0 0 34 0 31 0 0 24 0 0 0 0 0 0 37 0 0 0 0 0 0 0 0 0 0 0 0 0 0 0 0 0 0 0 0 0 0 0 
		16 0 0 0 0 0 0 23 0 0 0 0 0 0 0 0 0 0 0 0 0 0 0 0 0 0 0 0 32 0 0 0 0 0 29 0 0 25 0 33 0 0 0 0 32 0 0 0 0 0 0 0 0 0 0 0 0 0 0 0 37 0 0 0 0 0 0 0 0 0 0 0 0 0 0 0 0 0 0 0 0 0 0 0 0 0 0 34 0 0 0 0 0 0 0 
		17 0 0 0 24 0 0 0 0 34 0 0 35 0 0 0 20 0 0 0 0 0 0 0 0 0 0 0 0 0 0 0 0 0 0 23 0 0 0 0 37 0 0 0 0 0 0 36 0 21 0 0 34 0 21 0 0 0 0 0 0 0 0 0 0 0 0 0 0 0 0 0 0 0 0 0 0 0 0 0 30 0 0 0 0 0 0 30 0 0 0 0 0 0 25 
		18 0 0 0 33 0 0 0 0 33 36 0 38 0 0 0 0 0 0 0 0 0 0 40 0 0 40 0 0 0 0 0 0 0 37 0 0 0 0 0 0 0 0 0 0 0 0 0 0 0 0 0 21 0 0 0 0 0 0 0 0 0 24 0 0 0 23 0 0 0 0 0 0 0 26 0 0 0 0 0 0 0 0 0 0 22 0 0 0 0 0 0 0 0 0 
		19 0 0 0 0 0 0 0 0 0 0 0 20 22 40 0 0 0 0 0 0 0 0 0 25 0 0 0 0 0 0 0 0 0 0 30 0 0 0 0 0 0 0 0 0 0 0 0 0 0 0 0 0 0 0 0 0 0 0 0 0 0 0 31 33 0 0 0 0 0 0 0 0 0 0 0 0 0 30 0 0 0 0 29 37 0 34 0 0 0 0 0 0 0 0 
		20 0 40 0 0 0 0 0 0 0 0 0 0 0 0 30 0 0 0 0 0 0 0 0 0 0 0 31 0 0 32 0 0 0 0 0 40 0 0 0 0 0 0 0 0 0 0 0 0 0 0 0 28 0 0 0 0 0 0 39 0 0 0 0 0 0 0 38 20 0 0 0 0 0 0 0 0 0 0 0 0 0 0 0 0 0 0 0 0 0 0 0 0 0 0 
		21 0 0 0 0 0 0 0 0 0 0 0 0 0 0 0 0 0 0 0 0 0 0 0 28 0 0 0 0 0 29 0 32 0 0 0 0 0 0 0 0 0 0 0 0 0 0 0 0 0 0 0 25 0 0 0 0 0 0 0 0 0 21 0 0 0 0 0 0 0 34 0 0 0 33 0 0 0 0 0 0 0 0 0 39 0 0 0 0 0 0 0 0 0 0 
		22 0 0 0 25 0 0 0 0 0 0 0 0 20 32 0 38 0 0 40 0 0 0 0 0 0 0 37 0 0 0 0 0 33 0 0 0 0 0 0 0 0 0 0 0 0 0 0 0 35 0 0 0 24 31 0 40 0 0 0 0 0 0 0 0 0 0 0 0 0 0 0 0 36 0 0 0 0 39 0 36 0 26 0 0 33 0 0 0 0 0 0 0 0 0 
		23 0 0 0 0 0 22 0 0 0 0 0 0 0 0 0 24 0 0 0 25 0 28 0 0 0 0 0 0 0 0 0 0 0 0 0 27 0 35 0 0 0 0 0 0 0 0 0 0 0 0 0 0 0 38 0 0 0 0 0 24 23 0 0 0 0 0 0 0 0 0 25 0 0 0 0 0 0 20 0 0 0 0 0 0 0 0 0 0 0 0 0 29 0 0 
		24 0 34 0 0 27 0 0 0 0 0 0 0 0 32 0 0 0 0 0 0 0 0 0 0 0 0 0 0 0 26 0 23 20 0 0 0 0 0 0 0 0 0 23 27 0 0 26 0 33 0 0 0 0 0 31 0 0 0 0 0 0 0 0 0 0 20 0 0 0 0 0 0 0 0 0 0 30 0 0 25 33 0 24 40 0 0 0 0 0 0 0 0 0 0 
		25 0 0 0 0 0 0 0 0 40 0 0 0 33 0 33 0 0 0 40 0 0 0 0 0 0 0 0 0 0 0 0 0 0 38 0 0 0 0 0 0 0 0 21 0 0 0 0 0 0 0 0 0 0 0 0 0 0 0 0 0 0 0 0 0 0 0 0 0 40 0 0 0 0 0 0 0 0 36 0 0 0 0 0 0 33 0 0 0 0 0 0 0 0 0 
		26 0 0 0 0 0 28 0 0 0 0 0 0 0 0 0 0 0 0 0 0 31 0 37 0 0 0 0 0 0 0 0 0 0 0 25 0 36 0 0 0 26 0 0 0 30 0 0 0 0 0 0 0 0 0 0 0 0 0 0 0 0 0 0 0 0 0 0 0 0 0 0 0 0 0 0 0 0 0 0 0 0 36 0 0 0 0 0 0 0 0 0 0 0 37 
		27 0 0 0 0 35 0 0 28 0 0 0 0 0 0 0 32 32 0 0 0 0 0 0 0 0 0 0 0 0 0 0 0 0 25 0 24 0 0 0 0 0 0 0 0 0 0 0 0 0 0 0 0 0 0 0 0 0 39 28 0 38 0 0 0 0 0 0 0 0 0 0 0 0 0 0 0 0 0 0 0 0 0 0 0 0 0 0 0 0 0 0 0 0 0 
		28 33 0 0 0 37 0 0 25 0 0 0 0 0 0 0 0 0 0 0 0 0 0 0 0 0 0 0 0 0 0 0 0 0 0 0 0 0 0 0 0 0 0 0 0 0 0 0 0 0 22 0 30 0 0 0 0 0 0 0 30 21 0 0 0 0 0 0 0 0 0 0 0 0 0 0 0 0 0 0 0 0 0 0 0 0 0 0 0 0 0 0 0 22 0 
		29 0 0 0 0 0 0 0 0 0 0 0 37 0 0 0 0 0 0 0 0 32 29 0 0 26 0 0 0 0 0 0 37 0 0 0 0 0 0 0 25 0 0 0 40 0 0 0 0 0 0 0 0 0 0 0 0 0 0 0 0 0 0 0 0 0 0 0 0 0 0 0 0 0 39 0 0 0 0 0 0 0 25 0 0 0 0 0 32 33 0 0 0 0 0 
		30 0 21 0 0 0 0 0 0 0 0 0 0 0 0 0 32 0 0 0 0 0 0 0 0 0 0 0 0 0 0 0 0 0 0 0 23 0 0 0 0 0 0 0 0 0 0 0 0 0 23 0 0 0 0 0 0 0 28 0 0 0 0 0 0 0 0 0 0 29 0 33 0 27 0 0 0 34 25 0 0 0 0 0 0 0 0 0 0 0 0 0 0 0 0 
		31 0 0 30 0 28 0 0 0 0 0 0 0 0 0 0 0 0 0 0 0 0 32 0 0 23 0 0 0 0 37 0 0 0 0 0 0 0 25 0 0 0 0 0 21 0 0 0 0 0 0 0 0 0 0 0 0 0 0 0 0 0 38 0 0 0 0 0 0 0 0 0 0 0 0 0 0 33 0 0 0 0 0 32 0 22 26 33 0 0 0 38 0 34 0 
		32 0 0 0 26 0 0 0 0 0 0 0 0 0 0 0 23 0 0 0 0 0 0 33 0 20 0 0 0 0 0 0 0 0 0 0 0 0 0 0 0 0 0 0 0 39 0 0 0 38 0 0 0 0 0 0 0 0 0 0 0 0 0 0 0 0 0 27 0 0 0 22 29 0 24 0 24 0 0 0 0 0 0 0 0 0 0 0 0 0 0 38 0 0 23 
		33 0 0 0 0 0 0 0 0 0 0 0 0 0 0 25 0 29 0 37 0 0 0 0 0 0 38 0 25 0 0 0 0 0 0 22 30 0 0 23 0 0 0 0 0 40 0 0 0 40 0 0 0 0 0 0 0 0 0 0 0 0 0 0 0 0 0 0 36 28 0 0 0 0 0 0 0 0 0 0 0 0 0 21 0 0 0 0 0 0 0 0 0 29 0 
		34 0 0 0 0 0 24 0 0 0 0 0 0 0 0 40 0 0 23 0 30 0 0 0 0 0 0 25 0 0 0 0 0 0 22 0 0 0 0 0 0 33 0 0 0 0 0 0 0 0 0 0 0 0 0 0 0 0 0 0 0 0 36 0 0 0 39 0 0 0 0 0 0 0 0 0 38 38 0 0 0 0 0 0 0 0 0 0 0 0 0 0 0 0 0 
		35 0 0 0 0 0 0 37 0 0 0 0 23 0 0 0 0 0 0 0 0 40 0 0 27 0 0 0 24 0 0 23 0 0 30 0 0 0 0 0 0 0 0 0 0 0 0 0 0 0 0 0 0 0 0 0 0 0 0 0 0 0 0 0 0 0 0 0 0 0 0 0 0 0 0 0 0 0 0 0 0 0 0 0 0 28 0 0 0 0 0 0 0 0 0 
		36 0 0 0 0 0 0 0 0 0 0 0 0 22 29 0 0 25 0 0 0 0 0 0 0 0 0 36 0 0 0 0 0 0 0 0 0 0 22 40 35 0 0 0 0 0 30 0 0 0 0 0 0 0 0 0 0 0 0 32 0 0 23 0 25 0 0 0 0 0 0 0 0 0 0 0 0 0 0 20 0 0 0 0 0 0 25 0 0 39 0 0 0 0 0 
		37 0 0 0 0 0 21 0 0 0 0 0 0 0 0 0 0 0 0 0 0 0 0 0 35 0 0 0 0 0 0 0 25 0 0 0 0 22 0 0 0 0 0 0 0 0 0 0 0 0 0 0 0 0 0 0 0 0 0 23 34 0 0 0 0 0 0 0 0 0 0 0 0 0 0 0 0 0 0 0 0 0 0 0 0 0 0 23 0 0 0 0 0 0 0 
		38 0 0 29 0 0 0 0 0 0 0 0 0 0 0 0 0 33 0 0 0 0 0 0 0 0 0 0 0 0 0 0 0 0 23 0 0 40 0 0 0 0 0 36 0 0 39 0 0 0 0 34 0 0 0 0 0 0 0 34 0 0 0 0 0 0 36 0 0 0 0 0 0 0 0 30 0 39 0 0 0 0 25 0 0 0 0 0 0 0 0 0 0 0 0 
		39 0 37 20 27 0 20 0 22 29 0 0 0 35 0 0 38 0 37 0 0 0 0 0 0 0 0 0 0 0 25 0 0 0 0 0 0 35 0 0 0 0 0 0 0 25 0 36 0 0 0 0 0 0 0 0 0 0 0 0 0 0 0 0 0 0 0 0 0 0 22 0 0 0 0 0 0 0 36 0 0 0 0 0 0 0 21 0 0 0 0 0 0 0 0 
		40 0 0 0 0 0 0 0 0 0 0 0 0 0 0 0 0 0 0 0 0 0 0 0 0 0 0 26 0 0 0 0 0 0 0 33 0 0 0 0 0 0 0 0 0 0 0 0 0 0 0 0 0 0 0 0 0 23 31 0 0 0 0 33 0 0 0 0 0 0 40 0 0 0 37 0 0 0 0 33 0 0 0 0 0 0 0 0 0 0 0 0 0 0 0 
		41 0 0 0 37 0 0 0 0 0 0 0 0 0 0 0 0 0 0 0 0 0 0 0 0 0 0 0 0 0 0 0 0 0 0 0 0 0 0 0 0 0 0 0 0 0 0 0 0 0 0 0 0 0 40 30 0 26 0 0 0 0 0 0 0 21 0 24 20 36 0 0 0 0 0 34 37 24 32 0 0 0 30 0 0 0 0 0 0 0 0 0 0 0 0 
		42 0 0 0 20 0 0 0 0 0 0 33 0 0 0 37 0 0 0 0 0 0 0 0 0 23 21 0 0 0 0 0 0 0 0 0 0 0 0 36 0 0 0 0 0 0 0 0 0 24 0 0 0 0 0 0 0 0 0 0 0 0 26 0 0 0 0 0 0 0 0 0 0 0 0 0 29 0 0 0 21 0 0 0 0 0 0 0 0 0 0 0 0 0 0 
		43 0 28 0 0 0 0 0 0 0 0 0 40 0 0 0 31 32 0 0 0 0 0 0 0 27 0 0 0 0 40 0 21 0 0 0 0 0 0 0 0 0 0 0 0 0 0 0 0 0 0 39 0 0 23 0 0 0 0 0 0 0 0 0 0 0 0 0 0 0 0 0 0 0 0 0 0 0 36 0 34 0 0 0 0 0 0 0 0 0 0 0 0 0 0 
		44 0 0 0 31 0 0 0 0 0 0 0 0 0 0 0 0 0 0 0 0 0 0 0 0 0 0 30 0 0 0 0 0 39 40 0 0 0 0 0 25 0 0 0 0 0 0 0 0 0 0 0 0 0 0 0 0 0 0 0 0 0 0 0 0 0 0 0 0 0 31 0 33 0 0 0 0 0 0 0 0 0 0 31 0 21 0 0 0 0 38 0 38 0 0 
		45 0 0 0 0 38 0 0 0 0 0 0 26 0 0 0 0 0 0 0 0 0 0 0 0 0 0 0 0 0 0 0 0 0 0 0 0 30 0 39 0 0 0 0 0 0 0 34 0 0 21 26 0 0 0 0 0 0 0 0 28 0 0 0 0 0 0 0 0 0 0 0 0 0 0 0 0 0 0 0 0 0 0 0 0 0 0 0 0 0 0 0 0 0 0 
		46 0 0 0 0 0 0 0 0 0 0 23 0 40 20 0 0 0 36 0 0 0 0 0 0 26 0 0 0 0 0 0 0 0 0 0 0 0 0 0 36 0 0 0 0 0 34 0 0 0 0 0 0 0 0 0 0 0 0 0 0 0 22 0 0 0 0 0 0 0 0 0 0 0 0 0 0 0 0 0 0 0 0 0 0 0 0 0 0 0 0 0 0 0 0 
		47 0 0 34 0 0 0 0 0 0 0 0 0 0 37 0 0 0 0 0 0 0 0 0 0 0 0 0 0 0 0 0 0 0 0 0 0 0 0 0 0 0 0 0 0 0 0 0 0 0 0 0 0 0 0 0 32 0 0 0 26 0 0 0 0 0 0 0 0 0 0 0 0 0 0 0 0 0 25 0 0 0 0 0 0 20 0 0 0 0 0 0 0 0 0 
		48 27 0 0 0 0 0 27 0 26 0 0 0 0 0 0 0 0 21 0 0 0 0 35 0 33 0 0 0 0 0 0 0 38 40 0 0 0 0 0 0 0 0 24 0 0 0 0 0 0 0 0 0 0 0 0 0 0 30 0 0 0 37 0 0 0 0 0 0 0 0 0 33 0 0 0 31 0 0 32 0 0 0 0 38 0 0 0 0 0 27 0 0 0 35 
		49 27 0 0 0 0 0 0 0 0 0 0 0 0 0 0 0 0 0 0 0 0 0 0 0 0 0 0 0 22 0 23 0 0 0 0 0 0 0 0 0 0 0 0 0 0 21 0 0 0 0 0 0 0 0 0 0 0 0 0 0 28 0 0 0 38 0 0 0 0 0 0 0 0 0 0 0 0 0 0 0 40 0 0 0 0 0 0 0 0 0 0 0 34 0 
		50 0 0 0 36 0 0 0 0 0 0 0 0 0 0 0 0 0 0 0 0 0 0 0 0 0 0 0 0 0 0 0 0 0 0 0 0 0 0 34 0 0 0 0 39 0 26 0 0 0 0 0 0 0 0 0 0 0 0 0 31 0 0 0 0 0 38 0 0 0 0 0 0 23 0 0 0 0 0 0 0 0 0 0 0 0 0 0 0 0 0 0 0 0 0 
		51 29 0 31 0 0 0 0 0 0 0 0 0 0 0 0 0 0 34 21 0 28 25 0 0 0 0 0 0 30 0 0 0 0 0 0 0 0 0 0 0 0 0 0 0 0 0 0 0 0 0 0 0 0 0 25 0 0 0 0 0 22 0 27 0 0 0 0 0 0 0 0 0 0 0 0 0 0 0 0 0 0 0 0 26 0 0 0 0 0 0 30 0 0 0 
		52 0 0 0 0 0 0 0 0 0 0 0 0 0 0 0 0 0 0 0 0 0 0 24 0 0 0 0 0 0 0 0 0 0 0 0 0 0 0 0 0 0 0 0 0 0 0 0 0 0 0 0 0 0 0 0 0 0 0 0 0 0 0 0 0 0 0 0 0 0 0 0 0 0 0 0 0 0 0 0 0 0 0 0 0 0 0 0 0 0 20 0 0 0 0 
		53 0 0 0 0 37 0 0 0 27 0 0 0 0 0 0 0 0 21 0 0 0 0 31 38 0 0 0 0 0 0 0 0 0 0 0 0 0 0 0 0 0 40 0 23 0 0 0 0 0 0 0 0 0 0 25 0 33 0 0 0 0 0 0 0 0 0 0 23 0 0 0 0 0 0 40 0 28 36 0 0 0 36 0 39 26 0 0 0 0 0 0 0 0 0 
		54 0 0 0 0 0 0 25 0 0 0 0 21 0 0 0 0 0 0 0 0 0 0 0 0 31 0 0 0 0 0 0 0 0 0 0 0 0 0 0 0 0 30 0 0 0 0 0 0 0 0 0 25 0 25 0 0 0 0 0 0 0 0 0 0 40 0 0 0 0 0 0 25 0 0 0 0 0 0 0 29 0 0 0 0 0 0 0 0 0 0 0 0 0 0 
		55 21 0 0 0 0 0 0 0 0 0 0 35 0 0 0 0 0 0 0 0 0 0 40 0 0 0 0 0 0 0 0 0 0 0 0 0 0 0 0 0 0 0 0 0 0 0 0 32 0 0 0 0 0 0 0 0 0 0 0 0 0 0 0 0 0 0 0 0 0 0 0 0 0 0 0 0 0 0 0 0 0 0 0 0 0 0 35 0 0 0 0 0 0 0 
		56 0 0 0 0 0 0 0 0 0 0 0 0 0 0 0 0 0 0 0 0 0 0 0 0 0 0 0 0 0 0 0 0 0 0 0 0 0 0 0 0 23 26 0 0 0 0 0 0 0 0 0 0 0 33 0 0 0 0 0 0 0 0 0 21 0 0 0 0 0 0 0 0 0 0 0 0 0 0 40 0 0 0 0 0 0 0 0 0 0 36 0 0 0 0 
		57 0 0 0 32 0 0 0 0 0 0 0 0 23 0 0 0 0 0 0 0 0 0 0 0 0 0 0 39 0 0 28 0 0 0 0 0 0 0 0 0 31 0 0 0 0 0 0 0 30 0 0 0 0 0 0 0 0 0 27 0 0 0 0 0 0 0 0 32 0 0 39 0 0 0 0 0 0 34 0 27 0 39 38 39 0 0 0 0 0 0 0 0 0 28 
		58 0 0 0 0 0 0 0 0 0 0 0 28 0 0 0 34 0 0 0 0 39 0 0 0 0 0 0 28 0 0 0 0 0 0 0 0 32 23 34 0 0 0 0 0 0 0 0 0 0 0 0 0 0 0 0 0 0 27 0 0 0 0 0 0 0 0 0 0 26 0 0 0 0 0 25 0 0 0 27 0 0 0 0 0 0 0 0 29 0 0 0 0 31 0 
		59 0 0 0 0 0 0 0 0 0 0 0 0 0 0 0 0 37 0 0 0 0 0 0 24 0 0 0 0 30 0 0 0 0 0 0 0 0 34 0 0 0 0 0 0 0 28 0 26 0 0 31 0 0 0 0 0 0 0 0 0 0 0 0 0 0 0 0 0 0 0 0 0 0 0 0 0 0 0 0 0 0 0 0 0 0 0 0 0 0 0 0 0 0 0 
		60 0 0 0 0 0 0 0 0 0 0 0 0 0 0 0 31 0 0 0 0 0 0 0 23 0 0 0 38 21 0 0 0 0 0 0 0 0 0 0 0 0 0 0 0 0 0 0 0 0 28 0 22 0 0 0 0 0 0 0 0 0 0 0 34 0 0 28 0 20 0 0 0 30 0 0 0 0 0 0 0 0 0 0 0 37 0 0 0 0 0 0 0 0 0 
		61 0 0 0 30 0 0 0 0 0 0 0 0 0 0 0 0 0 0 24 0 0 21 0 0 0 0 0 0 0 0 0 38 0 0 36 0 23 0 0 0 0 0 26 0 0 0 22 0 37 0 0 0 0 0 0 0 0 0 0 0 0 0 39 0 0 0 0 33 0 0 0 0 0 0 0 0 0 0 33 0 30 0 0 36 0 0 0 0 0 0 0 0 0 0 
		62 0 0 0 0 0 0 0 0 0 0 0 0 0 0 27 0 0 0 0 31 0 0 0 0 0 0 0 0 0 0 0 0 0 0 0 0 0 0 0 0 33 0 0 0 0 0 0 0 0 0 0 27 0 0 0 0 0 0 0 0 0 39 0 0 0 0 0 0 0 0 0 0 0 0 0 0 0 0 0 0 0 0 0 24 0 0 0 0 0 0 0 0 0 0 
		63 0 0 0 40 0 36 0 0 0 0 0 0 0 0 0 24 0 0 0 33 0 0 0 0 0 0 0 0 0 0 0 0 0 0 0 0 25 0 0 0 0 0 0 0 0 0 0 0 0 0 0 0 0 0 0 0 21 0 0 0 34 0 0 0 0 0 0 31 0 0 0 0 0 0 0 0 37 0 0 0 0 0 0 0 0 0 0 0 0 0 0 0 0 0 
		64 38 0 0 0 0 0 0 0 0 0 0 32 0 0 0 0 0 0 0 0 0 0 0 0 0 0 0 0 0 0 0 0 0 0 0 0 0 0 0 0 0 21 0 0 0 0 0 0 0 38 0 0 0 0 40 0 0 0 0 0 0 0 0 0 0 0 0 0 0 0 0 0 0 0 0 0 0 0 0 0 0 0 0 0 0 0 0 0 0 0 0 0 0 0 
		65 0 0 0 0 0 0 0 0 0 0 0 0 0 0 0 0 0 0 23 0 0 0 0 0 20 0 0 0 0 0 0 0 0 0 39 0 0 0 36 0 0 0 0 0 0 0 0 0 0 0 38 0 0 0 0 0 0 0 0 0 0 0 0 0 0 0 0 0 0 0 0 0 0 0 0 0 0 0 36 0 0 0 0 0 0 0 0 0 39 0 0 0 0 0 
		66 0 0 0 32 0 0 28 0 0 0 0 31 0 0 24 0 0 0 0 0 38 0 0 0 0 0 0 0 0 0 0 0 27 0 0 0 0 0 0 0 0 24 0 0 0 0 0 0 0 0 0 0 0 0 0 0 0 0 0 0 28 0 0 0 0 0 0 0 0 0 0 30 0 0 0 0 0 0 0 0 38 0 0 0 0 0 0 0 0 0 27 0 0 0 
		67 0 0 0 32 0 0 0 0 38 0 24 0 0 36 0 0 0 0 0 0 20 0 0 0 0 0 0 0 0 0 0 0 0 36 0 0 0 0 0 0 0 20 0 0 0 0 0 0 0 0 0 0 0 23 0 0 0 32 0 0 0 33 0 31 0 0 0 0 0 0 0 0 28 0 0 0 30 31 0 0 0 0 37 0 0 0 0 0 27 0 0 0 0 0 
		68 0 0 0 0 0 0 0 0 0 0 0 0 0 0 0 0 0 0 0 0 0 0 0 0 0 40 0 0 0 0 29 0 0 28 0 0 0 0 0 0 0 36 0 0 0 0 0 0 0 0 0 0 0 0 0 0 0 0 26 0 20 0 0 0 0 0 0 0 0 0 0 0 0 0 0 38 0 0 0 0 40 0 0 0 0 0 0 0 36 0 0 0 0 0 
		69 0 0 0 0 0 21 0 0 0 0 0 0 0 0 0 0 0 0 0 0 0 34 0 0 0 0 0 0 0 0 0 0 0 0 0 0 0 0 0 22 40 0 0 0 31 0 0 0 0 0 0 0 0 0 0 0 0 0 0 0 0 0 0 0 0 0 0 0 0 0 0 0 0 0 0 0 0 35 0 32 0 0 24 39 0 28 0 0 0 0 0 0 0 0 
		70 0 23 0 0 0 0 0 0 0 0 0 0 0 0 0 37 0 0 0 0 0 0 0 25 0 0 0 0 0 0 33 0 22 0 0 0 0 0 0 0 0 0 0 0 0 0 0 0 0 0 0 0 0 0 0 0 0 39 0 0 0 0 0 0 0 0 0 0 0 0 0 0 40 0 0 0 0 0 0 0 0 0 0 0 0 0 0 0 0 0 0 0 0 0 
		71 0 0 0 0 0 0 0 0 0 0 0 0 0 0 27 0 0 0 0 0 0 0 0 0 0 0 0 0 0 0 0 0 29 0 0 0 0 0 0 0 0 0 0 0 33 0 0 0 33 0 0 0 0 0 25 0 0 0 0 0 0 0 0 0 0 0 30 0 0 0 0 0 0 0 0 0 0 0 26 0 0 0 0 0 0 0 0 0 0 20 0 0 0 0 
		72 0 0 0 0 0 36 0 0 0 0 0 0 0 0 0 0 0 0 0 0 0 0 36 0 0 0 0 0 0 0 27 0 0 0 0 0 0 0 0 0 0 0 0 0 0 0 0 0 0 0 23 0 0 0 0 0 0 0 0 0 30 0 0 0 0 0 0 28 0 0 40 0 0 36 0 0 0 0 0 0 0 0 0 0 20 0 0 0 0 0 0 0 0 25 
		73 0 0 0 0 0 0 0 0 0 0 0 0 0 0 0 0 0 0 26 0 0 33 0 0 0 0 0 0 0 39 0 0 24 0 0 0 0 0 0 0 37 0 0 0 0 0 0 0 0 0 0 0 0 0 0 0 0 0 0 0 0 0 0 0 0 0 0 0 0 0 0 0 36 0 23 24 0 0 0 0 0 0 0 0 0 0 0 0 0 0 0 0 0 0 
		74 0 0 22 0 0 0 0 0 0 0 0 0 0 0 0 0 0 0 0 0 0 0 0 0 0 0 0 0 0 0 0 0 0 0 0 0 0 0 30 0 0 34 0 0 0 0 0 0 0 0 0 0 0 40 0 0 0 0 25 0 0 0 0 0 0 0 0 0 0 0 0 0 0 23 0 0 0 0 0 0 0 0 34 0 24 40 0 0 27 0 0 0 0 0 
		75 0 0 0 0 0 0 28 0 0 0 0 0 0 0 0 0 0 0 0 0 0 0 0 0 0 0 0 0 0 0 0 0 24 0 38 0 0 0 0 0 0 37 29 0 0 0 0 0 31 0 0 0 0 0 0 0 0 0 0 0 0 0 0 0 0 0 0 0 38 0 0 0 0 24 0 0 0 0 0 0 39 0 0 0 40 0 0 0 0 0 0 0 0 0 
		76 0 0 0 25 24 21 0 0 0 0 0 0 0 0 0 0 0 0 0 0 0 0 0 0 30 0 0 0 0 0 34 33 0 0 38 0 0 0 39 0 0 24 0 0 0 0 0 0 0 0 0 0 0 28 0 0 0 0 0 0 0 0 0 37 0 0 0 30 0 0 0 0 0 0 0 0 0 0 0 30 0 0 0 0 34 0 0 0 0 0 0 0 0 0 
		77 0 0 40 0 0 0 0 0 22 0 0 20 0 0 0 0 0 0 0 30 0 0 39 20 0 36 0 0 0 0 25 0 0 0 0 0 0 0 0 36 0 32 0 36 0 0 0 25 0 0 0 0 0 36 0 0 0 34 0 0 0 0 0 0 0 0 0 31 0 35 0 0 0 0 0 0 0 0 0 0 0 0 0 0 0 0 0 0 0 0 0 0 0 0 
		78 0 0 0 32 0 0 0 0 0 0 0 0 0 0 0 0 0 0 0 0 0 0 0 0 0 0 0 0 0 0 0 0 0 0 0 0 20 0 0 0 33 0 0 0 0 0 0 0 32 0 0 0 0 0 0 0 40 0 27 0 0 33 0 0 0 36 0 0 0 0 0 26 0 0 0 0 0 0 0 0 0 0 0 0 0 30 0 0 0 0 0 0 0 0 
		79 0 0 0 0 0 0 0 0 0 0 0 0 0 0 0 0 0 30 0 0 0 0 36 0 25 0 0 0 0 0 0 0 0 0 0 0 0 0 0 0 0 0 21 34 0 0 0 0 0 0 0 0 0 0 29 0 0 27 0 0 0 0 0 0 0 0 0 0 0 32 0 0 0 0 0 0 30 0 0 0 0 0 0 0 0 0 40 0 0 0 0 0 0 31 
		80 0 0 0 0 0 0 0 0 0 0 0 0 0 0 0 0 0 0 0 0 0 0 0 0 33 0 0 0 0 0 0 0 0 0 0 0 0 0 0 0 0 0 0 0 0 0 0 0 0 40 0 0 0 0 0 0 0 0 0 0 0 30 0 0 0 0 38 0 40 0 0 0 0 0 0 39 0 0 0 0 0 0 0 0 0 0 0 0 0 0 38 0 0 0 
		81 40 22 0 0 0 0 0 0 0 0 0 0 0 0 0 0 0 0 0 0 0 0 26 0 0 0 36 0 0 25 0 0 0 0 0 0 0 0 25 0 0 30 0 0 0 0 0 0 0 0 0 0 0 36 0 0 0 39 0 0 0 0 0 0 0 0 0 0 0 0 0 0 0 0 0 0 0 0 0 0 0 0 0 0 0 0 0 34 0 0 0 0 35 0 
		82 0 0 0 0 0 0 0 0 27 0 0 0 0 35 0 0 0 0 0 29 0 0 0 0 24 0 0 0 0 0 0 32 0 21 0 0 0 0 0 0 0 0 0 0 31 0 0 0 0 0 0 0 0 0 0 0 0 38 0 0 0 0 0 0 0 0 0 37 0 24 0 0 0 0 34 0 0 0 0 0 0 0 0 0 0 0 0 0 0 0 0 0 0 0 
		83 0 0 0 0 0 0 0 0 0 0 0 0 0 0 0 0 0 0 0 37 0 39 0 0 40 0 0 0 0 0 0 0 0 0 0 0 0 0 0 0 0 0 0 0 0 0 0 0 38 0 0 26 0 39 0 0 0 39 0 0 0 36 24 0 0 0 0 0 0 39 0 0 0 0 0 0 0 0 0 0 0 0 0 0 0 0 0 0 0 0 0 0 0 20 
		84 21 0 0 0 0 0 0 0 0 0 0 0 0 0 20 0 0 0 22 0 0 0 33 0 0 33 0 0 0 0 0 22 0 0 0 28 0 0 0 0 0 0 0 0 21 0 0 20 0 0 0 0 0 26 0 0 0 0 0 0 37 0 0 0 0 0 0 0 0 0 0 0 20 0 24 40 34 0 0 0 0 0 0 0 0 0 35 0 0 0 0 0 0 0 
		85 0 0 29 0 0 28 0 0 27 0 0 0 0 40 0 0 0 0 0 34 0 0 0 0 0 0 0 0 0 0 0 26 0 0 0 0 25 0 0 21 0 0 0 0 0 0 0 0 0 0 0 0 0 0 0 0 0 0 0 0 0 0 0 0 0 0 0 0 0 28 0 0 0 0 40 0 0 0 30 0 0 0 0 0 0 0 0 0 0 0 0 0 0 0 
		86 0 0 0 0 0 0 0 0 0 0 0 25 0 0 0 0 34 30 0 0 0 0 0 0 0 0 0 0 0 0 0 33 0 0 0 0 0 23 0 0 0 0 0 0 0 0 0 0 0 0 0 0 0 0 0 35 0 0 0 0 0 0 0 0 0 0 0 0 0 0 0 0 0 0 0 0 0 0 0 40 0 0 0 0 35 0 0 0 33 0 0 0 0 0 
		87 0 0 0 0 0 0 0 0 34 0 0 0 0 0 0 0 0 0 0 0 0 0 0 0 0 0 0 0 0 32 0 0 0 0 0 0 0 0 0 0 0 0 0 0 0 0 0 0 0 0 0 0 0 0 0 0 0 0 29 0 0 0 0 0 0 0 0 0 0 0 0 0 0 0 0 0 0 0 0 0 0 34 0 0 0 0 0 0 0 0 0 0 0 0 
		88 0 0 0 0 0 0 0 0 0 0 0 0 0 0 0 0 0 0 0 0 0 0 0 0 0 0 0 0 0 33 0 0 0 0 0 0 39 0 0 0 0 0 0 0 0 0 0 0 0 0 0 0 0 0 0 0 0 0 0 0 0 0 0 0 0 39 0 27 36 0 0 0 0 0 27 0 0 0 0 0 0 0 0 0 0 0 33 0 0 0 0 0 0 0 
		89 0 0 0 0 0 0 0 0 0 0 0 0 0 0 35 0 0 0 0 0 0 0 0 0 0 0 0 0 0 0 0 0 0 0 0 0 0 0 0 0 0 0 0 0 38 0 0 0 27 0 0 0 20 0 0 0 36 0 0 0 0 0 0 0 0 0 0 0 0 0 0 20 0 0 0 0 0 0 0 0 0 0 0 0 0 0 0 0 0 0 24 0 0 0 
		90 0 0 0 0 0 0 0 0 0 0 0 0 0 0 0 0 0 0 0 0 0 0 0 0 0 0 0 0 0 0 0 38 38 0 0 0 0 0 0 0 0 0 0 0 0 0 0 0 0 0 0 30 0 0 0 0 0 0 0 0 0 0 0 0 0 0 27 0 0 0 0 0 0 0 0 0 0 0 0 0 38 0 0 0 0 0 0 0 0 24 0 0 0 0 
		91 0 0 0 0 0 0 0 0 0 0 0 0 0 0 0 0 0 0 0 0 0 0 0 29 0 0 0 0 0 0 0 0 0 0 0 0 0 0 0 0 0 0 0 0 38 0 0 0 0 0 0 0 0 0 0 0 0 0 0 0 0 0 0 0 0 0 0 0 0 0 0 0 0 0 0 0 0 0 0 0 0 0 0 0 0 0 0 0 0 0 0 0 0 0 
		92 0 0 0 0 0 0 27 30 0 0 0 0 0 0 0 0 0 0 0 0 0 0 0 0 0 0 0 0 22 0 0 34 0 29 0 0 0 0 0 0 0 0 0 0 0 0 0 0 0 34 0 0 0 0 0 0 0 0 31 0 0 0 0 0 0 0 0 0 0 0 0 0 0 0 0 0 0 0 0 0 0 35 0 0 0 0 0 0 0 0 0 0 0 0 
		93 0 0 0 0 0 0 0 0 33 23 0 0 0 38 27 0 0 25 0 0 0 0 0 0 0 0 37 0 0 0 0 0 23 0 0 0 0 0 0 0 0 0 0 0 0 0 0 0 35 0 0 0 0 0 0 0 0 28 0 0 0 0 0 0 0 0 0 0 0 0 0 0 25 0 0 0 0 0 0 31 0 0 0 20 0 0 0 0 0 0 0 0 0 0 
;
